40
1 0 32
2 0 21
2 1 26
3 0 28
3 1 9
3 2 35
4 0 40
4 1 9
4 2 21
4 3 13
5 0 10
5 1 37
5 2 20
5 3 16
5 4 3
6 0 5
6 1 37
6 2 28
6 3 8
6 4 11
6 5 31
7 0 11
7 1 24
7 2 11
7 3 16
7 4 15
7 5 5
7 6 23
8 0 6
8 1 36
8 2 19
8 3 37
8 4 26
8 5 32
8 6 5
8 7 37
9 0 14
9 1 15
9 2 20
9 3 37
9 4 37
9 5 19
9 6 13
9 7 15
9 8 10
10 0 22
10 1 8
10 2 7
10 3 23
10 4 20
10 5 21
10 6 21
10 7 32
10 8 24
10 9 24
11 0 3
11 1 37
11 2 35
11 3 22
11 4 26
11 5 20
11 6 33
11 7 5
11 8 32
11 9 5
11 10 11
12 0 25
12 1 31
12 2 19
12 3 36
12 4 27
12 5 35
12 6 29
12 7 22
12 8 23
12 9 7
12 10 39
12 11 15
13 0 40
13 1 9
13 2 3
13 3 25
13 4 39
13 5 35
13 6 13
13 7 20
13 8 36
13 9 27
13 10 15
13 11 8
13 12 7
14 0 20
14 1 28
14 2 17
14 3 36
14 4 39
14 5 24
14 6 32
14 7 7
14 8 10
14 9 40
14 10 32
14 11 31
14 12 4
14 13 6
15 0 23
15 1 19
15 2 8
15 3 25
15 4 17
15 5 22
15 6 13
15 7 14
15 8 26
15 9 27
15 10 25
15 11 19
15 12 27
15 13 13
15 14 15
16 0 20
16 1 40
16 2 9
16 3 28
16 4 29
16 5 30
16 6 14
16 7 14
16 8 1
16 9 34
16 10 32
16 11 11
16 12 32
16 13 32
16 14 17
16 15 36
17 0 1
17 1 39
17 2 29
17 3 2
17 4 11
17 5 33
17 6 7
17 7 2
17 8 38
17 9 5
17 10 9
17 11 26
17 12 38
17 13 17
17 14 23
17 15 9
17 16 31
18 0 17
18 1 25
18 2 9
18 3 25
18 4 19
18 5 31
18 6 40
18 7 3
18 8 2
18 9 16
18 10 1
18 11 10
18 12 15
18 13 28
18 14 3
18 15 33
18 16 31
18 17 8
19 0 17
19 1 36
19 2 19
19 3 10
19 4 37
19 5 2
19 6 32
19 7 22
19 8 30
19 9 32
19 10 3
19 11 11
19 12 27
19 13 5
19 14 21
19 15 33
19 16 34
19 17 13
19 18 16
20 0 37
20 1 28
20 2 34
20 3 18
20 4 27
20 5 14
20 6 7
20 7 8
20 8 36
20 9 17
20 10 19
20 11 4
20 12 28
20 13 22
20 14 15
20 15 24
20 16 9
20 17 29
20 18 11
20 19 8
21 0 34
21 1 7
21 2 19
21 3 10
21 4 29
21 5 29
21 6 39
21 7 27
21 8 31
21 9 25
21 10 22
21 11 29
21 12 2
21 13 8
21 14 39
21 15 3
21 16 39
21 17 7
21 18 23
21 19 21
21 20 22
22 0 5
22 1 15
22 2 25
22 3 1
22 4 25
22 5 11
22 6 3
22 7 15
22 8 1
22 9 25
22 10 35
22 11 18
22 12 36
22 13 24
22 14 14
22 15 34
22 16 23
22 17 3
22 18 37
22 19 33
22 20 8
22 21 32
23 0 24
23 1 33
23 2 27
23 3 13
23 4 8
23 5 14
23 6 36
23 7 29
23 8 22
23 9 10
23 10 5
23 11 5
23 12 37
23 13 31
23 14 4
23 15 36
23 16 34
23 17 36
23 18 21
23 19 15
23 20 37
23 21 30
23 22 5
24 0 1
24 1 1
24 2 6
24 3 32
24 4 20
24 5 16
24 6 23
24 7 11
24 8 6
24 9 17
24 10 5
24 11 8
24 12 2
24 13 32
24 14 13
24 15 33
24 16 38
24 17 35
24 18 25
24 19 24
24 20 26
24 21 33
24 22 12
24 23 11
25 0 4
25 1 16
25 2 26
25 3 18
25 4 40
25 5 15
25 6 5
25 7 24
25 8 25
25 9 18
25 10 24
25 11 39
25 12 16
25 13 32
25 14 33
25 15 40
25 16 8
25 17 11
25 18 40
25 19 2
25 20 18
25 21 2
25 22 31
25 23 24
25 24 26
26 0 36
26 1 8
26 2 13
26 3 37
26 4 36
26 5 23
26 6 21
26 7 10
26 8 2
26 9 6
26 10 40
26 11 2
26 12 21
26 13 30
26 14 5
26 15 8
26 16 33
26 17 19
26 18 37
26 19 3
26 20 28
26 21 19
26 22 15
26 23 1
26 24 16
26 25 27
27 0 6
27 1 32
27 2 21
27 3 40
27 4 19
27 5 4
27 6 9
27 7 11
27 8 1
27 9 38
27 10 37
27 11 7
27 12 33
27 13 3
27 14 17
27 15 18
27 16 29
27 17 6
27 18 19
27 19 28
27 20 36
27 21 18
27 22 29
27 23 15
27 24 7
27 25 30
27 26 2
28 0 19
28 1 27
28 2 39
28 3 17
28 4 11
28 5 21
28 6 19
28 7 33
28 8 19
28 9 37
28 10 14
28 11 1
28 12 38
28 13 36
28 14 28
28 15 4
28 16 3
28 17 3
28 18 24
28 19 37
28 20 1
28 21 38
28 22 30
28 23 15
28 24 26
28 25 37
28 26 34
28 27 24
29 0 3
29 1 17
29 2 22
29 3 21
29 4 24
29 5 32
29 6 30
29 7 1
29 8 35
29 9 25
29 10 22
29 11 35
29 12 34
29 13 35
29 14 10
29 15 22
29 16 34
29 17 37
29 18 39
29 19 24
29 20 27
29 21 23
29 22 2
29 23 39
29 24 31
29 25 4
29 26 6
29 27 39
29 28 35
30 0 17
30 1 21
30 2 1
30 3 15
30 4 33
30 5 18
30 6 35
30 7 20
30 8 32
30 9 5
30 10 3
30 11 14
30 12 32
30 13 40
30 14 13
30 15 31
30 16 7
30 17 9
30 18 17
30 19 9
30 20 14
30 21 12
30 22 38
30 23 23
30 24 16
30 25 32
30 26 24
30 27 31
30 28 12
30 29 16
31 0 38
31 1 8
31 2 9
31 3 10
31 4 11
31 5 4
31 6 19
31 7 1
31 8 20
31 9 22
31 10 4
31 11 38
31 12 10
31 13 10
31 14 28
31 15 17
31 16 37
31 17 36
31 18 1
31 19 11
31 20 4
31 21 29
31 22 40
31 23 34
31 24 18
31 25 24
31 26 31
31 27 8
31 28 28
31 29 13
31 30 22
32 0 5
32 1 12
32 2 30
32 3 11
32 4 8
32 5 24
32 6 39
32 7 34
32 8 22
32 9 27
32 10 30
32 11 5
32 12 4
32 13 14
32 14 32
32 15 25
32 16 39
32 17 4
32 18 27
32 19 14
32 20 34
32 21 9
32 22 13
32 23 31
32 24 17
32 25 21
32 26 27
32 27 22
32 28 20
32 29 20
32 30 30
32 31 11
33 0 21
33 1 33
33 2 3
33 3 34
33 4 1
33 5 29
33 6 19
33 7 5
33 8 29
33 9 3
33 10 25
33 11 19
33 12 9
33 13 25
33 14 29
33 15 38
33 16 13
33 17 4
33 18 15
33 19 10
33 20 29
33 21 8
33 22 11
33 23 40
33 24 7
33 25 6
33 26 26
33 27 22
33 28 33
33 29 40
33 30 15
33 31 30
33 32 8
34 0 20
34 1 35
34 2 6
34 3 26
34 4 8
34 5 33
34 6 25
34 7 29
34 8 4
34 9 5
34 10 21
34 11 34
34 12 16
34 13 7
34 14 24
34 15 22
34 16 26
34 17 35
34 18 14
34 19 37
34 20 12
34 21 39
34 22 35
34 23 28
34 24 13
34 25 14
34 26 1
34 27 2
34 28 13
34 29 17
34 30 14
34 31 6
34 32 32
34 33 39
35 0 23
35 1 7
35 2 31
35 3 35
35 4 9
35 5 2
35 6 16
35 7 24
35 8 30
35 9 5
35 10 10
35 11 25
35 12 14
35 13 1
35 14 8
35 15 27
35 16 8
35 17 27
35 18 17
35 19 36
35 20 32
35 21 36
35 22 13
35 23 14
35 24 39
35 25 24
35 26 6
35 27 36
35 28 5
35 29 24
35 30 10
35 31 10
35 32 10
35 33 36
35 34 37
36 0 37
36 1 31
36 2 16
36 3 4
36 4 25
36 5 5
36 6 33
36 7 20
36 8 34
36 9 14
36 10 11
36 11 16
36 12 31
36 13 30
36 14 10
36 15 8
36 16 20
36 17 37
36 18 31
36 19 13
36 20 36
36 21 27
36 22 21
36 23 6
36 24 20
36 25 5
36 26 37
36 27 28
36 28 21
36 29 11
36 30 2
36 31 6
36 32 30
36 33 20
36 34 24
36 35 16
37 0 37
37 1 20
37 2 9
37 3 29
37 4 27
37 5 17
37 6 40
37 7 17
37 8 20
37 9 29
37 10 35
37 11 23
37 12 3
37 13 15
37 14 18
37 15 25
37 16 39
37 17 40
37 18 12
37 19 11
37 20 20
37 21 33
37 22 23
37 23 34
37 24 16
37 25 12
37 26 35
37 27 16
37 28 18
37 29 15
37 30 23
37 31 34
37 32 13
37 33 4
37 34 40
37 35 39
37 36 4
38 0 21
38 1 36
38 2 21
38 3 21
38 4 39
38 5 28
38 6 6
38 7 29
38 8 33
38 9 3
38 10 5
38 11 38
38 12 34
38 13 32
38 14 12
38 15 29
38 16 21
38 17 39
38 18 22
38 19 11
38 20 33
38 21 15
38 22 22
38 23 14
38 24 22
38 25 7
38 26 31
38 27 23
38 28 34
38 29 4
38 30 12
38 31 40
38 32 6
38 33 24
38 34 13
38 35 27
38 36 40
38 37 26
39 0 24
39 1 10
39 2 32
39 3 28
39 4 28
39 5 29
39 6 21
39 7 3
39 8 8
39 9 16
39 10 29
39 11 17
39 12 11
39 13 9
39 14 25
39 15 14
39 16 27
39 17 37
39 18 30
39 19 1
39 20 31
39 21 14
39 22 34
39 23 30
39 24 7
39 25 6
39 26 27
39 27 22
39 28 8
39 29 37
39 30 9
39 31 13
39 32 3
39 33 40
39 34 3
39 35 4
39 36 28
39 37 18
39 38 8
